# Solution for model PD-Stages
# Objective value = 2.8152435195220050e+01
zigjg[101,102,5] 1
zigjg[101,203,5] 0
zigjg[101,303,5] 0
zigjg[102,101,5] 0
zigjg[102,203,5] 0
zigjg[102,303,5] 1
zigjg[203,101,5] 1
zigjg[203,102,5] 0
zigjg[203,303,5] 0
zigjg[303,101,5] 0
zigjg[303,102,5] 0
zigjg[303,203,5] 1
sig[101,5] 0
sig[102,5] 1
sig[203,5] 3
sig[303,5] 2
digjg[101,102,5] 0
digjg[101,203,5] 10000
digjg[101,303,5] 10000
digjg[102,101,5] 10000
digjg[102,203,5] 10000
digjg[102,303,5] 0
digjg[203,101,5] 0
digjg[203,102,5] 10000
digjg[203,303,5] 10000
digjg[303,101,5] 10000
digjg[303,102,5] 10000
digjg[303,203,5] 0
difigjg[101,102,5,0] 0
difigjg[101,102,5,1] 0
difigjg[101,203,5,0] 5.1933253563324557e+00
difigjg[101,203,5,1] 8.4193831155082854e+00
difigjg[101,303,5,0] 2.8279869363838541e+00
difigjg[101,303,5,1] 5.3871784369847457e+00
difigjg[102,101,5,0] 7.3290450329981267e+00
difigjg[102,101,5,1] 5.9032679280219860e+00
difigjg[102,203,5,0] 8.0213122927163134e+00
difigjg[102,203,5,1] 3.0322046785240673e+00
difigjg[102,303,5,0] 0
difigjg[102,303,5,1] 0
difigjg[203,101,5,0] 0
difigjg[203,101,5,1] 0
difigjg[203,102,5,0] 4.5010580966097606e+00
difigjg[203,102,5,1] 0.516089491038656
difigjg[203,303,5,0] 7.3290450329958574e+00
difigjg[203,303,5,1] 5.9032679280226148e+00
difigjg[303,101,5,0] 6.9226725971930136e-01
difigjg[303,101,5,1] 8.9354726065444581e+00
difigjg[303,102,5,0] 5.1933253563302060e+00
difigjg[303,102,5,1] 8.4193831155072267e+00
difigjg[303,203,5,0] 0
difigjg[303,203,5,1] 0
pigjg[101,102,5] 0
pigjg[101,203,5] 0
pigjg[101,303,5] 0
pigjg[102,101,5] 0
pigjg[102,203,5] 0
pigjg[102,303,5] 0
pigjg[203,101,5] 0
pigjg[203,102,5] 0
pigjg[203,303,5] 0
pigjg[303,101,5] 0
pigjg[303,102,5] 0
pigjg[303,203,5] 0
Rig[101,5,0] 4.6546350087395837e+01
Rig[101,5,1] 9.8527665576368584e+00
Rig[102,5,0] 4.2045291990783817e+01
Rig[102,5,1] 1.0368856048674090e+01
Rig[203,5,0] 4.7238617347114030e+01
Rig[203,5,1] 1.8788239164181316e+01
Rig[303,5,0] 3.9217305054397720e+01
Rig[303,5,1] 1.5756034485658839e+01
rhoig[101,5] -5.0093262871087063e-13
rhoig[102,5] 9.9999999999999956e-01
rhoig[203,5] -1.1102230246251565e-14
rhoig[303,5] 1
Lig[101,5,0] 4.2045291990781578e+01
Lig[101,5,1] 1.0368856048674353e+01
Lig[102,5,0] 3.9217305054397713e+01
Lig[102,5,1] 1.5756034485658844e+01
Lig[203,5,0] 4.6546350087393577e+01
Lig[203,5,1] 9.8527665576371177e+00
Lig[303,5,0] 4.7238617347114022e+01
Lig[303,5,1] 1.8788239164181316e+01
landaig[101,5] 1.0000000000005009e+00
landaig[102,5] -2.6645352591003757e-15
landaig[203,5] 9.9999999999998890e-01
landaig[303,5] 8.8817841970012523e-16
minig[101,5] 1.0000000000005034e+00
minig[102,5] 0
minig[203,5] 1
minig[303,5] 0
maxig[101,5] -5.03375119365046e-13
maxig[102,5] 1
maxig[203,5] 0
maxig[303,5] 1
entryig[101,5] 1.0000000000005034e+00
entryig[102,5] 0
entryig[203,5] 1
entryig[303,5] 0
muig[101,5] 1
muig[102,5] 1
muig[203,5] 1
muig[303,5] 1
pig[101,5] 1
pig[102,5] 1
pig[203,5] 1
pig[303,5] 1
alphaig[101,5] 1
alphaig[102,5] 1
alphaig[203,5] 1
alphaig[303,5] 1
